303323.13,15.29,16.75
283262.02,16.37,17.93
302356.23,15.34,16.8
307570.24,15.08,16.52
303420.74,15.28,16.74
301123.54,15.4,16.87
300938.86,15.41,16.88
317896.77,14.59,15.98
305839.66,15.16,16.61
300361.02,15.44,16.91
292480.8,15.86,17.37
314535.72,14.74,16.15
310207.75,14.95,16.38
304763.3,15.22,16.67
293818.27,15.78,17.29
308282.91,15.04,16.48
295862.94,15.68,17.17
300565.36,15.43,16.9
309610.72,14.98,16.41
301173.8,15.4,16.87
